c File: flat300_26_0.col
c
c SOURCE: Joseph Culberson (joe@cs.ualberta.ca)
c DESCRIPTION: Quasi-random coloring problem
c              generated with flatness = 0
c                             probability = 0.500
c                             known coloring = 26
c                             random seed = 200191231
c              Creation Date:  Fri Nov  5 11:49:25 1993
c Maximum degree = 158 Minimum degree = 123
p edge 300 21633
e 14 8
e 16 8
e 17 8
e 21 8
e 23 8
e 25 16
e 25 24
e 27 8
e 27 24
e 28 16
e 29 8
e 29 16
e 29 24
e 30 24
e 31 8
e 32 8
e 32 16
e 33 16
e 33 24
e 34 24
e 36 8
e 36 16
e 36 24
e 37 24
e 39 24
e 40 32
e 41 32
e 42 8
e 42 16
e 42 24
e 42 32
e 43 16
e 44 8
e 44 16
e 44 24
e 44 32
e 45 8
e 45 16
e 45 24
e 45 32
e 46 8
e 46 16
e 47 16
e 47 32
e 48 32
e 49 16
e 49 24
e 49 32
e 50 8
e 50 24
e 50 40
e 51 8
e 51 48
e 52 16
e 52 40
e 53 24
e 53 32
e 53 40
e 53 48
e 54 8
e 54 32
e 55 8
e 55 24
e 55 40
e 55 48
e 56 8
e 56 24
e 56 32
e 56 40
e 57 8
e 57 24
e 57 32
e 58 16
e 58 24
e 58 40
e 58 48
e 59 8
e 59 48
e 60 16
e 60 40
e 60 48
e 61 8
e 61 16
e 61 56
e 62 16
e 62 24
e 62 32
e 62 48
e 63 8
e 63 16
e 63 24
e 63 32
e 63 56
e 64 32
e 64 56
e 65 16
e 65 24
e 65 40
e 65 48
e 65 56
e 66 16
e 66 40
e 67 8
e 67 32
e 67 40
e 67 48
e 68 8
e 68 24
e 68 48
e 69 8
e 69 40
e 69 48
e 70 8
e 70 40
e 70 48
e 70 56
e 71 24
e 71 32
e 71 40
e 72 48
e 72 56
e 73 8
e 73 56
e 74 8
e 74 16
e 74 40
e 74 56
e 74 64
e 74 72
e 75 8
e 75 32
e 76 16
e 76 24
e 76 32
e 76 40
e 76 56
e 76 72
e 77 24
e 77 40
e 77 56
e 77 64
e 78 8
e 78 24
e 78 32
e 78 48
e 78 64
e 78 72
e 79 16
e 79 24
e 79 48
e 79 56
e 79 72
e 80 16
e 80 24
e 80 32
e 80 40
e 80 48
e 80 64
e 80 72
e 81 8
e 81 16
e 81 56
e 81 72
e 82 24
e 82 32
e 82 64
e 82 72
e 83 8
e 83 16
e 83 56
e 83 64
e 84 16
e 84 24
e 84 32
e 85 8
e 85 40
e 85 72
e 85 80
e 86 8
e 86 16
e 86 64
e 86 72
e 87 8
e 87 16
e 87 24
e 87 40
e 87 64
e 88 16
e 88 24
e 88 48
e 88 56
e 88 72
e 89 16
e 89 32
e 89 40
e 89 72
e 89 80
e 90 16
e 90 24
e 90 32
e 90 48
e 91 8
e 91 16
e 91 24
e 91 40
e 91 48
e 91 56
e 91 64
e 92 8
e 92 24
e 92 32
e 92 64
e 93 8
e 93 40
e 93 48
e 93 56
e 93 64
e 93 72
e 93 80
e 94 8
e 94 32
e 94 48
e 94 56
e 94 64
e 95 24
e 95 40
e 95 56
e 95 72
e 95 80
e 96 24
e 96 40
e 96 48
e 96 72
e 97 8
e 97 16
e 97 24
e 97 40
e 97 48
e 97 72
e 98 32
e 98 48
e 98 72
e 99 8
e 99 32
e 99 40
e 99 56
e 99 88
e 100 16
e 100 24
e 100 40
e 100 56
e 100 88
e 101 8
e 101 24
e 101 32
e 101 40
e 101 64
e 101 80
e 102 8
e 102 24
e 102 48
e 102 56
e 102 64
e 102 72
e 102 88
e 102 96
e 103 8
e 103 16
e 103 32
e 103 48
e 103 56
e 103 64
e 103 80
e 103 88
e 104 8
e 104 16
e 104 24
e 104 32
e 104 48
e 104 56
e 104 64
e 104 72
e 104 96
e 105 24
e 105 56
e 105 64
e 105 88
e 106 40
e 106 48
e 106 64
e 106 72
e 106 96
e 107 8
e 107 16
e 107 24
e 107 32
e 107 64
e 107 96
e 108 16
e 108 32
e 108 40
e 108 48
e 108 56
e 108 80
e 108 88
e 108 96
e 109 8
e 109 24
e 109 48
e 109 56
e 109 72
e 109 96
e 109 104
e 110 16
e 110 24
e 110 32
e 110 40
e 110 48
e 110 56
e 110 64
e 110 88
e 110 96
e 110 104
e 111 24
e 111 32
e 111 80
e 112 16
e 112 24
e 112 64
e 112 80
e 112 96
e 112 104
e 113 8
e 113 16
e 113 24
e 113 40
e 113 48
e 113 64
e 113 104
e 114 8
e 114 16
e 114 32
e 114 48
e 114 56
e 114 64
e 114 88
e 114 96
e 115 24
e 115 32
e 115 40
e 115 48
e 115 56
e 115 72
e 115 80
e 115 96
e 116 8
e 116 32
e 116 48
e 116 56
e 116 64
e 116 104
e 117 8
e 117 32
e 117 88
e 117 96
e 117 104
e 118 8
e 118 16
e 118 64
e 118 72
e 118 80
e 118 88
e 118 96
e 119 8
e 119 16
e 119 24
e 119 32
e 119 40
e 119 56
e 119 80
e 119 88
e 120 16
e 120 56
e 120 64
e 120 72
e 120 88
e 120 104
e 121 8
e 121 32
e 121 48
e 121 56
e 121 64
e 121 80
e 121 88
e 121 104
e 121 112
e 122 16
e 122 24
e 122 40
e 122 48
e 122 56
e 122 72
e 122 88
e 122 96
e 122 120
e 123 24
e 123 40
e 123 48
e 123 56
e 123 64
e 123 80
e 124 8
e 124 24
e 124 32
e 124 40
e 124 64
e 124 72
e 124 80
e 124 96
e 125 32
e 125 64
e 125 88
e 125 96
e 125 104
e 126 8
e 126 24
e 126 32
e 126 40
e 126 48
e 126 88
e 126 96
e 126 104
e 126 120
e 127 24
e 127 32
e 127 40
e 127 48
e 127 64
e 127 72
e 127 80
e 127 96
e 127 104
e 127 112
e 128 8
e 128 16
e 128 72
e 128 80
e 128 104
e 128 112
e 128 120
e 129 16
e 129 40
e 129 56
e 129 64
e 129 88
e 129 104
e 129 112
e 129 120
e 130 16
e 130 24
e 130 32
e 130 48
e 130 56
e 130 64
e 130 80
e 130 88
e 130 96
e 130 112
e 130 120
e 131 16
e 131 24
e 131 40
e 131 56
e 131 88
e 131 104
e 131 112
e 131 120
e 132 8
e 132 48
e 132 56
e 132 72
e 132 96
e 132 112
e 132 120
e 133 16
e 133 24
e 133 32
e 133 40
e 133 48
e 133 56
e 133 64
e 133 72
e 133 88
e 133 96
e 133 104
e 133 112
e 133 120
e 133 128
e 134 16
e 134 32
e 134 48
e 134 64
e 134 72
e 134 80
e 134 88
e 134 112
e 134 128
e 135 8
e 135 16
e 135 24
e 135 40
e 135 72
e 135 80
e 135 88
e 135 104
e 135 112
e 135 128
e 136 8
e 136 16
e 136 40
e 136 72
e 136 88
e 136 96
e 136 104
e 136 112
e 136 120
e 136 128
e 137 8
e 137 40
e 137 56
e 137 72
e 137 80
e 137 88
e 137 96
e 137 112
e 137 120
e 138 16
e 138 24
e 138 32
e 138 88
e 138 96
e 138 112
e 138 120
e 138 128
e 139 16
e 139 32
e 139 48
e 139 64
e 139 88
e 139 104
e 140 8
e 140 16
e 140 24
e 140 32
e 140 64
e 140 80
e 140 96
e 140 104
e 140 120
e 141 8
e 141 24
e 141 32
e 141 40
e 141 64
e 141 72
e 141 80
e 141 104
e 141 112
e 141 128
e 142 48
e 142 56
e 142 64
e 142 80
e 142 104
e 142 128
e 143 32
e 143 72
e 143 96
e 143 120
e 144 24
e 144 40
e 144 48
e 144 64
e 144 96
e 145 16
e 145 48
e 145 64
e 145 80
e 145 88
e 145 96
e 145 128
e 145 136
e 146 16
e 146 24
e 146 56
e 146 64
e 146 72
e 146 80
e 146 112
e 146 120
e 146 144
e 147 8
e 147 16
e 147 24
e 147 32
e 147 40
e 147 96
e 147 120
e 147 144
e 148 24
e 148 40
e 148 88
e 148 96
e 148 112
e 148 128
e 148 136
e 148 144
e 149 48
e 149 56
e 149 64
e 149 96
e 149 128
e 149 144
e 150 8
e 150 16
e 150 40
e 150 56
e 150 64
e 150 72
e 150 88
e 150 96
e 150 104
e 150 112
e 151 8
e 151 24
e 151 32
e 151 40
e 151 48
e 151 56
e 151 72
e 151 80
e 151 88
e 151 104
e 151 112
e 151 128
e 151 136
e 152 8
e 152 16
e 152 32
e 152 80
e 152 104
e 152 112
e 152 128
e 152 136
e 152 144
e 153 16
e 153 24
e 153 32
e 153 40
e 153 96
e 153 112
e 153 120
e 153 128
e 153 136
e 154 16
e 154 40
e 154 48
e 154 56
e 154 64
e 154 72
e 154 80
e 154 88
e 154 104
e 154 120
e 154 128
e 154 144
e 155 8
e 155 24
e 155 32
e 155 48
e 155 56
e 155 64
e 155 80
e 155 88
e 155 96
e 155 112
e 155 120
e 155 136
e 155 144
e 156 24
e 156 32
e 156 40
e 156 48
e 156 56
e 156 80
e 156 104
e 156 120
e 156 136
e 157 8
e 157 16
e 157 32
e 157 48
e 157 128
e 157 136
e 158 8
e 158 16
e 158 24
e 158 32
e 158 48
e 158 56
e 158 64
e 158 88
e 158 96
e 158 104
e 158 120
e 158 128
e 158 136
e 158 152
e 159 16
e 159 24
e 159 64
e 159 88
e 159 104
e 159 112
e 159 136
e 159 144
e 159 152
e 160 32
e 160 40
e 160 48
e 160 72
e 160 80
e 160 88
e 160 96
e 160 104
e 160 112
e 160 120
e 160 144
e 161 8
e 161 16
e 161 24
e 161 56
e 161 64
e 161 72
e 161 80
e 161 96
e 161 104
e 161 120
e 161 128
e 161 152
e 162 8
e 162 16
e 162 24
e 162 32
e 162 40
e 162 48
e 162 104
e 162 136
e 162 144
e 162 152
e 163 8
e 163 56
e 163 64
e 163 80
e 163 88
e 163 104
e 163 112
e 163 128
e 163 136
e 164 8
e 164 16
e 164 24
e 164 40
e 164 48
e 164 56
e 164 64
e 164 72
e 164 96
e 164 120
e 164 128
e 164 152
e 165 24
e 165 40
e 165 48
e 165 56
e 165 80
e 165 88
e 165 112
e 165 128
e 166 24
e 166 56
e 166 80
e 166 96
e 166 112
e 166 120
e 166 144
e 166 152
e 167 8
e 167 32
e 167 48
e 167 80
e 167 88
e 167 112
e 167 136
e 167 152
e 168 16
e 168 40
e 168 72
e 168 80
e 168 88
e 168 104
e 168 120
e 168 128
e 169 8
e 169 16
e 169 24
e 169 32
e 169 40
e 169 48
e 169 96
e 169 112
e 169 128
e 169 152
e 169 168
e 170 16
e 170 40
e 170 48
e 170 56
e 170 104
e 170 112
e 170 120
e 170 136
e 170 152
e 171 8
e 171 40
e 171 56
e 171 64
e 171 72
e 171 88
e 171 96
e 171 104
e 171 112
e 171 120
e 171 128
e 171 136
e 171 144
e 171 152
e 171 168
e 172 16
e 172 24
e 172 48
e 172 64
e 172 72
e 172 80
e 172 88
e 172 112
e 172 128
e 172 136
e 172 144
e 172 160
e 172 168
e 173 8
e 173 24
e 173 32
e 173 48
e 173 56
e 173 88
e 173 96
e 173 120
e 173 128
e 173 144
e 174 16
e 174 24
e 174 32
e 174 72
e 174 88
e 174 128
e 174 144
e 174 160
e 174 168
e 175 8
e 175 16
e 175 24
e 175 32
e 175 48
e 175 56
e 175 64
e 175 80
e 175 120
e 175 128
e 175 160
e 176 32
e 176 64
e 176 72
e 176 88
e 176 96
e 176 104
e 176 120
e 176 136
e 176 144
e 176 152
e 177 16
e 177 24
e 177 56
e 177 64
e 177 72
e 177 104
e 177 152
e 178 16
e 178 40
e 178 48
e 178 56
e 178 64
e 178 104
e 178 120
e 178 144
e 179 48
e 179 64
e 179 72
e 179 120
e 179 128
e 179 152
e 179 168
e 180 8
e 180 16
e 180 48
e 180 72
e 180 96
e 180 112
e 180 120
e 180 136
e 180 144
e 181 24
e 181 32
e 181 48
e 181 64
e 181 72
e 181 80
e 181 112
e 181 120
e 181 128
e 181 136
e 181 144
e 181 152
e 182 8
e 182 16
e 182 32
e 182 72
e 182 80
e 182 96
e 182 104
e 182 112
e 182 136
e 182 144
e 182 160
e 183 8
e 183 16
e 183 32
e 183 48
e 183 88
e 183 104
e 183 128
e 183 144
e 183 152
e 183 160
e 183 168
e 183 176
e 184 16
e 184 32
e 184 40
e 184 56
e 184 64
e 184 80
e 184 96
e 184 104
e 184 112
e 184 128
e 184 136
e 184 152
e 184 160
e 184 176
e 185 24
e 185 32
e 185 40
e 185 48
e 185 64
e 185 72
e 185 88
e 185 96
e 185 104
e 185 120
e 185 152
e 185 168
e 185 176
e 186 24
e 186 32
e 186 40
e 186 48
e 186 56
e 186 64
e 186 80
e 186 88
e 186 96
e 186 104
e 186 112
e 186 120
e 186 152
e 186 160
e 187 32
e 187 48
e 187 56
e 187 64
e 187 80
e 187 96
e 187 120
e 187 152
e 187 160
e 187 168
e 188 8
e 188 24
e 188 40
e 188 56
e 188 64
e 188 80
e 188 120
e 188 136
e 188 160
e 188 176
e 189 40
e 189 48
e 189 80
e 189 104
e 189 112
e 189 136
e 189 144
e 189 152
e 189 168
e 189 176
e 190 8
e 190 16
e 190 88
e 190 96
e 190 112
e 190 120
e 190 136
e 190 160
e 190 168
e 190 176
e 191 8
e 191 24
e 191 48
e 191 64
e 191 72
e 191 80
e 191 88
e 191 144
e 192 24
e 192 40
e 192 48
e 192 64
e 192 72
e 192 96
e 192 104
e 192 112
e 192 128
e 192 136
e 192 144
e 192 168
e 193 24
e 193 32
e 193 40
e 193 56
e 193 72
e 193 80
e 193 96
e 193 104
e 193 120
e 193 128
e 193 168
e 193 176
e 193 184
e 194 48
e 194 56
e 194 80
e 194 112
e 194 128
e 194 136
e 194 144
e 194 160
e 194 168
e 194 184
e 195 8
e 195 24
e 195 32
e 195 48
e 195 64
e 195 72
e 195 80
e 195 88
e 195 104
e 195 112
e 195 136
e 195 152
e 195 160
e 195 168
e 195 176
e 196 16
e 196 32
e 196 96
e 196 104
e 196 168
e 196 176
e 196 184
e 197 8
e 197 16
e 197 24
e 197 32
e 197 40
e 197 48
e 197 56
e 197 64
e 197 72
e 197 80
e 197 88
e 197 96
e 197 112
e 197 128
e 197 136
e 197 144
e 197 152
e 197 160
e 197 168
e 197 176
e 198 16
e 198 32
e 198 72
e 198 80
e 198 96
e 198 104
e 198 120
e 198 144
e 198 184
e 199 8
e 199 16
e 199 24
e 199 40
e 199 64
e 199 88
e 199 112
e 199 128
e 199 136
e 199 152
e 199 160
e 199 184
e 200 48
e 200 64
e 200 80
e 200 112
e 200 120
e 200 128
e 200 136
e 200 168
e 201 16
e 201 24
e 201 40
e 201 48
e 201 64
e 201 120
e 201 128
e 201 136
e 201 152
e 201 160
e 201 176
e 201 184
e 202 24
e 202 32
e 202 64
e 202 72
e 202 80
e 202 96
e 202 112
e 202 128
e 202 136
e 202 144
e 202 152
e 202 168
e 202 176
e 202 184
e 203 8
e 203 32
e 203 40
e 203 48
e 203 56
e 203 88
e 203 96
e 203 112
e 203 120
e 203 144
e 203 168
e 203 176
e 203 184
e 203 200
e 204 8
e 204 24
e 204 32
e 204 48
e 204 72
e 204 88
e 204 96
e 204 112
e 204 120
e 204 136
e 204 144
e 204 152
e 204 176
e 204 192
e 205 8
e 205 16
e 205 24
e 205 40
e 205 64
e 205 96
e 205 128
e 205 160
e 205 168
e 205 200
e 206 24
e 206 32
e 206 56
e 206 80
e 206 112
e 206 120
e 206 144
e 206 152
e 206 160
e 206 168
e 206 176
e 206 192
e 207 24
e 207 32
e 207 40
e 207 48
e 207 64
e 207 80
e 207 88
e 207 104
e 207 112
e 207 136
e 207 176
e 207 192
e 208 8
e 208 48
e 208 72
e 208 96
e 208 120
e 208 136
e 208 152
e 208 160
e 208 176
e 208 192
e 208 200
e 209 40
e 209 48
e 209 56
e 209 64
e 209 72
e 209 80
e 209 96
e 209 120
e 209 152
e 209 160
e 209 184
e 209 192
e 209 200
e 210 16
e 210 32
e 210 40
e 210 64
e 210 72
e 210 80
e 210 104
e 210 112
e 210 120
e 210 128
e 210 136
e 210 144
e 210 168
e 210 184
e 210 192
e 211 16
e 211 24
e 211 40
e 211 80
e 211 88
e 211 104
e 211 112
e 211 136
e 211 144
e 211 160
e 211 200
e 212 8
e 212 32
e 212 40
e 212 48
e 212 72
e 212 80
e 212 96
e 212 144
e 212 152
e 212 160
e 212 168
e 212 176
e 212 184
e 213 8
e 213 16
e 213 24
e 213 40
e 213 48
e 213 56
e 213 80
e 213 96
e 213 120
e 213 128
e 213 144
e 213 160
e 213 200
e 214 8
e 214 16
e 214 32
e 214 64
e 214 72
e 214 88
e 214 96
e 214 104
e 214 112
e 214 120
e 214 128
e 214 152
e 214 160
e 214 192
e 214 200
e 215 8
e 215 24
e 215 48
e 215 56
e 215 72
e 215 88
e 215 96
e 215 104
e 215 112
e 215 120
e 215 128
e 215 144
e 215 168
e 215 184
e 215 200
e 215 208
e 216 16
e 216 24
e 216 40
e 216 48
e 216 80
e 216 96
e 216 112
e 216 128
e 216 152
e 216 160
e 216 184
e 216 192
e 216 208
e 217 8
e 217 16
e 217 32
e 217 40
e 217 64
e 217 80
e 217 88
e 217 128
e 217 144
e 217 160
e 217 176
e 217 184
e 217 200
e 218 24
e 218 40
e 218 56
e 218 72
e 218 80
e 218 88
e 218 112
e 218 128
e 218 136
e 218 160
e 218 168
e 218 192
e 219 24
e 219 72
e 219 80
e 219 104
e 219 120
e 219 168
e 219 192
e 219 200
e 219 208
e 220 8
e 220 16
e 220 64
e 220 80
e 220 88
e 220 104
e 220 120
e 220 128
e 220 136
e 220 144
e 220 152
e 220 160
e 220 168
e 220 176
e 220 184
e 220 192
e 220 200
e 220 208
e 221 8
e 221 24
e 221 48
e 221 56
e 221 104
e 221 120
e 221 136
e 221 152
e 221 176
e 221 200
e 222 16
e 222 24
e 222 32
e 222 72
e 222 96
e 222 104
e 222 112
e 222 120
e 222 144
e 222 160
e 222 184
e 222 192
e 222 208
e 223 8
e 223 32
e 223 48
e 223 56
e 223 72
e 223 80
e 223 88
e 223 136
e 223 144
e 223 152
e 223 168
e 223 192
e 223 208
e 224 16
e 224 24
e 224 40
e 224 48
e 224 88
e 224 96
e 224 112
e 224 120
e 224 136
e 224 160
e 224 176
e 224 192
e 224 200
e 224 208
e 225 16
e 225 24
e 225 40
e 225 64
e 225 72
e 225 88
e 225 96
e 225 104
e 225 112
e 225 128
e 225 136
e 225 152
e 225 160
e 225 192
e 225 200
e 225 208
e 225 216
e 226 24
e 226 32
e 226 40
e 226 48
e 226 64
e 226 112
e 226 144
e 226 152
e 226 160
e 226 168
e 227 72
e 227 104
e 227 120
e 227 128
e 227 136
e 227 144
e 227 152
e 227 168
e 227 176
e 227 184
e 227 216
e 228 8
e 228 16
e 228 80
e 228 96
e 228 112
e 228 120
e 228 128
e 228 136
e 228 152
e 228 168
e 228 176
e 228 184
e 228 192
e 228 208
e 228 216
e 229 8
e 229 24
e 229 40
e 229 48
e 229 56
e 229 64
e 229 72
e 229 120
e 229 144
e 229 160
e 229 168
e 229 176
e 229 200
e 229 208
e 230 16
e 230 32
e 230 56
e 230 72
e 230 80
e 230 88
e 230 112
e 230 120
e 230 128
e 230 144
e 230 152
e 230 168
e 230 176
e 230 216
e 231 8
e 231 16
e 231 32
e 231 48
e 231 72
e 231 88
e 231 96
e 231 104
e 231 128
e 231 160
e 231 176
e 231 184
e 231 200
e 232 8
e 232 16
e 232 24
e 232 56
e 232 64
e 232 104
e 232 120
e 232 136
e 232 152
e 232 160
e 232 168
e 232 192
e 232 200
e 233 8
e 233 16
e 233 24
e 233 48
e 233 64
e 233 72
e 233 88
e 233 104
e 233 120
e 233 136
e 233 152
e 233 160
e 233 184
e 233 200
e 233 208
e 234 8
e 234 24
e 234 32
e 234 40
e 234 48
e 234 72
e 234 80
e 234 88
e 234 96
e 234 104
e 234 128
e 234 136
e 234 168
e 234 176
e 234 192
e 234 216
e 235 16
e 235 32
e 235 56
e 235 88
e 235 104
e 235 112
e 235 128
e 235 136
e 235 160
e 235 176
e 235 184
e 235 192
e 235 200
e 235 208
e 235 224
e 236 8
e 236 24
e 236 32
e 236 48
e 236 56
e 236 64
e 236 80
e 236 112
e 236 128
e 236 144
e 236 160
e 236 176
e 236 184
e 236 224
e 237 16
e 237 40
e 237 48
e 237 56
e 237 64
e 237 88
e 237 96
e 237 104
e 237 112
e 237 120
e 237 160
e 237 200
e 237 208
e 237 216
e 238 8
e 238 48
e 238 64
e 238 96
e 238 112
e 238 144
e 238 160
e 238 176
e 238 200
e 238 216
e 238 224
e 238 232
e 239 40
e 239 64
e 239 88
e 239 104
e 239 112
e 239 128
e 239 152
e 239 184
e 239 216
e 239 224
e 239 232
e 240 8
e 240 24
e 240 32
e 240 40
e 240 56
e 240 88
e 240 96
e 240 104
e 240 112
e 240 152
e 240 160
e 240 168
e 240 184
e 240 208
e 240 216
e 240 224
e 240 232
e 241 16
e 241 40
e 241 48
e 241 64
e 241 88
e 241 104
e 241 136
e 241 144
e 241 152
e 241 160
e 241 176
e 241 184
e 241 192
e 241 200
e 241 208
e 241 216
e 241 224
e 241 232
e 242 8
e 242 24
e 242 40
e 242 88
e 242 96
e 242 120
e 242 128
e 242 144
e 242 168
e 242 192
e 242 232
e 243 8
e 243 24
e 243 40
e 243 56
e 243 64
e 243 96
e 243 104
e 243 152
e 243 160
e 243 176
e 243 184
e 243 192
e 243 200
e 243 216
e 244 8
e 244 16
e 244 32
e 244 40
e 244 72
e 244 88
e 244 96
e 244 104
e 244 120
e 244 136
e 244 144
e 244 184
e 244 192
e 244 208
e 245 8
e 245 16
e 245 32
e 245 72
e 245 96
e 245 112
e 245 144
e 245 152
e 245 168
e 245 192
e 245 200
e 245 216
e 245 224
e 246 24
e 246 40
e 246 48
e 246 64
e 246 88
e 246 104
e 246 152
e 246 160
e 246 168
e 246 184
e 246 192
e 246 200
e 246 208
e 246 216
e 246 224
e 246 240
e 247 16
e 247 56
e 247 64
e 247 80
e 247 96
e 247 104
e 247 112
e 247 120
e 247 128
e 247 160
e 247 176
e 247 200
e 247 208
e 247 232
e 247 240
e 248 16
e 248 24
e 248 32
e 248 40
e 248 48
e 248 56
e 248 72
e 248 120
e 248 128
e 248 152
e 248 160
e 248 168
e 248 176
e 248 192
e 248 200
e 248 216
e 248 224
e 248 232
e 248 240
e 249 8
e 249 24
e 249 56
e 249 64
e 249 72
e 249 88
e 249 104
e 249 136
e 249 144
e 249 152
e 249 168
e 249 200
e 249 216
e 249 224
e 249 240
e 250 16
e 250 24
e 250 48
e 250 56
e 250 64
e 250 72
e 250 144
e 250 152
e 250 176
e 250 184
e 250 192
e 250 208
e 250 224
e 250 232
e 250 240
e 251 8
e 251 48
e 251 56
e 251 64
e 251 72
e 251 80
e 251 88
e 251 96
e 251 112
e 251 120
e 251 136
e 251 144
e 251 160
e 251 184
e 251 200
e 251 216
e 251 224
e 252 16
e 252 24
e 252 88
e 252 96
e 252 104
e 252 112
e 252 120
e 252 136
e 252 144
e 252 152
e 252 192
e 252 208
e 252 224
e 252 240
e 253 8
e 253 24
e 253 40
e 253 88
e 253 96
e 253 104
e 253 128
e 253 136
e 253 144
e 253 160
e 253 192
e 253 200
e 253 208
e 253 216
e 253 232
e 253 240
e 254 32
e 254 40
e 254 80
e 254 88
e 254 96
e 254 120
e 254 160
e 254 192
e 254 208
e 255 16
e 255 40
e 255 56
e 255 64
e 255 72
e 255 96
e 255 104
e 255 112
e 255 152
e 255 176
e 255 200
e 255 208
e 256 16
e 256 56
e 256 96
e 256 104
e 256 144
e 256 176
e 256 184
e 256 216
e 256 224
e 257 8
e 257 16
e 257 24
e 257 32
e 257 40
e 257 48
e 257 56
e 257 80
e 257 112
e 257 120
e 257 128
e 257 144
e 257 176
e 257 192
e 257 208
e 257 224
e 257 232
e 258 24
e 258 32
e 258 72
e 258 88
e 258 96
e 258 104
e 258 112
e 258 120
e 258 128
e 258 136
e 258 144
e 258 176
e 258 184
e 258 216
e 258 224
e 258 240
e 258 248
e 259 24
e 259 40
e 259 48
e 259 64
e 259 88
e 259 96
e 259 104
e 259 112
e 259 208
e 259 240
e 259 248
e 259 256
e 260 8
e 260 16
e 260 32
e 260 48
e 260 56
e 260 72
e 260 88
e 260 96
e 260 112
e 260 136
e 260 152
e 260 160
e 260 200
e 260 208
e 260 216
e 260 224
e 260 232
e 260 240
e 260 256
e 261 8
e 261 16
e 261 24
e 261 48
e 261 56
e 261 64
e 261 88
e 261 128
e 261 144
e 261 168
e 261 176
e 261 184
e 261 192
e 261 208
e 261 232
e 261 248
e 262 32
e 262 48
e 262 56
e 262 64
e 262 72
e 262 96
e 262 104
e 262 112
e 262 120
e 262 136
e 262 144
e 262 152
e 262 160
e 262 168
e 262 176
e 262 184
e 262 216
e 262 248
e 262 256
e 263 16
e 263 40
e 263 48
e 263 56
e 263 80
e 263 88
e 263 104
e 263 112
e 263 136
e 263 152
e 263 168
e 263 192
e 263 224
e 263 232
e 263 248
e 264 8
e 264 16
e 264 32
e 264 40
e 264 56
e 264 64
e 264 72
e 264 80
e 264 88
e 264 96
e 264 104
e 264 120
e 264 128
e 264 136
e 264 168
e 264 184
e 264 200
e 264 208
e 264 216
e 264 224
e 264 232
e 264 256
e 265 8
e 265 24
e 265 32
e 265 64
e 265 72
e 265 80
e 265 104
e 265 176
e 265 184
e 265 192
e 265 208
e 265 216
e 265 224
e 265 256
e 266 8
e 266 24
e 266 32
e 266 56
e 266 80
e 266 88
e 266 96
e 266 104
e 266 128
e 266 144
e 266 160
e 266 184
e 266 216
e 266 232
e 266 240
e 266 248
e 267 8
e 267 16
e 267 24
e 267 72
e 267 80
e 267 96
e 267 112
e 267 120
e 267 144
e 267 152
e 267 168
e 267 184
e 267 192
e 267 200
e 267 208
e 267 216
e 267 224
e 267 232
e 267 248
e 268 8
e 268 24
e 268 40
e 268 56
e 268 80
e 268 96
e 268 120
e 268 128
e 268 168
e 268 192
e 268 200
e 268 216
e 268 224
e 268 256
e 268 264
e 269 8
e 269 16
e 269 24
e 269 32
e 269 48
e 269 56
e 269 64
e 269 72
e 269 104
e 269 120
e 269 128
e 269 136
e 269 176
e 269 184
e 269 192
e 269 200
e 269 208
e 269 216
e 269 232
e 269 240
e 269 248
e 270 32
e 270 40
e 270 64
e 270 88
e 270 112
e 270 136
e 270 184
e 270 216
e 270 224
e 270 240
e 270 248
e 270 256
e 271 8
e 271 32
e 271 40
e 271 48
e 271 56
e 271 64
e 271 72
e 271 80
e 271 96
e 271 104
e 271 112
e 271 120
e 271 192
e 271 232
e 271 256
e 271 264
e 272 8
e 272 32
e 272 56
e 272 72
e 272 104
e 272 128
e 272 144
e 272 152
e 272 160
e 272 168
e 272 176
e 272 192
e 272 208
e 272 224
e 273 16
e 273 24
e 273 40
e 273 48
e 273 64
e 273 112
e 273 120
e 273 152
e 273 160
e 273 168
e 273 184
e 273 200
e 273 216
e 273 224
e 273 248
e 273 256
e 274 16
e 274 32
e 274 64
e 274 72
e 274 80
e 274 88
e 274 96
e 274 104
e 274 120
e 274 128
e 274 144
e 274 184
e 274 192
e 274 208
e 274 232
e 274 240
e 274 264
e 275 8
e 275 16
e 275 24
e 275 40
e 275 48
e 275 88
e 275 96
e 275 104
e 275 128
e 275 144
e 275 160
e 275 184
e 275 208
e 275 224
e 275 240
e 275 256
e 275 264
e 276 8
e 276 24
e 276 56
e 276 64
e 276 96
e 276 104
e 276 120
e 276 128
e 276 136
e 276 168
e 276 176
e 276 184
e 276 200
e 276 224
e 276 232
e 276 240
e 276 248
e 276 264
e 277 16
e 277 32
e 277 40
e 277 56
e 277 72
e 277 88
e 277 96
e 277 120
e 277 136
e 277 144
e 277 152
e 277 160
e 277 168
e 277 184
e 277 192
e 277 224
e 277 248
e 277 256
e 278 24
e 278 32
e 278 40
e 278 48
e 278 56
e 278 64
e 278 72
e 278 96
e 278 136
e 278 144
e 278 160
e 278 192
e 278 208
e 278 216
e 278 240
e 278 264
e 279 8
e 279 40
e 279 80
e 279 88
e 279 96
e 279 104
e 279 112
e 279 120
e 279 160
e 279 200
e 279 232
e 279 240
e 279 256
e 279 264
e 279 272
e 280 8
e 280 24
e 280 32
e 280 56
e 280 72
e 280 80
e 280 88
e 280 96
e 280 112
e 280 128
e 280 136
e 280 152
e 280 168
e 280 184
e 280 208
e 280 240
e 280 256
e 281 24
e 281 64
e 281 80
e 281 104
e 281 112
e 281 120
e 281 144
e 281 160
e 281 184
e 281 200
e 281 208
e 281 224
e 281 232
e 281 240
e 281 272
e 282 16
e 282 40
e 282 48
e 282 56
e 282 72
e 282 80
e 282 88
e 282 120
e 282 128
e 282 152
e 282 168
e 282 184
e 282 192
e 282 200
e 282 208
e 282 232
e 282 240
e 282 248
e 282 264
e 283 8
e 283 24
e 283 32
e 283 40
e 283 48
e 283 72
e 283 80
e 283 96
e 283 104
e 283 120
e 283 128
e 283 144
e 283 152
e 283 168
e 283 176
e 283 184
e 283 192
e 283 216
e 283 224
e 283 232
e 283 248
e 283 256
e 284 8
e 284 24
e 284 32
e 284 40
e 284 72
e 284 80
e 284 96
e 284 112
e 284 136
e 284 160
e 284 176
e 284 192
e 284 224
e 284 264
e 285 8
e 285 16
e 285 24
e 285 40
e 285 48
e 285 56
e 285 64
e 285 80
e 285 88
e 285 96
e 285 104
e 285 112
e 285 128
e 285 160
e 285 168
e 285 176
e 285 192
e 285 200
e 285 208
e 285 216
e 285 224
e 285 248
e 286 16
e 286 48
e 286 64
e 286 72
e 286 88
e 286 104
e 286 120
e 286 128
e 286 160
e 286 176
e 286 192
e 286 208
e 286 224
e 286 256
e 286 264
e 286 272
e 287 16
e 287 24
e 287 32
e 287 48
e 287 56
e 287 104
e 287 112
e 287 120
e 287 152
e 287 160
e 287 176
e 287 184
e 287 240
e 287 248
e 287 264
e 288 16
e 288 56
e 288 64
e 288 88
e 288 96
e 288 104
e 288 128
e 288 136
e 288 144
e 288 152
e 288 184
e 288 192
e 288 216
e 288 232
e 288 256
e 288 272
e 289 8
e 289 16
e 289 40
e 289 48
e 289 56
e 289 64
e 289 96
e 289 120
e 289 160
e 289 184
e 289 192
e 289 200
e 289 208
e 289 216
e 289 224
e 290 16
e 290 88
e 290 96
e 290 112
e 290 120
e 290 128
e 290 136
e 290 144
e 290 160
e 290 200
e 290 208
e 290 224
e 290 248
e 290 272
e 290 280
e 290 288
e 291 16
e 291 24
e 291 32
e 291 40
e 291 48
e 291 72
e 291 80
e 291 88
e 291 96
e 291 104
e 291 112
e 291 120
e 291 128
e 291 144
e 291 176
e 291 200
e 291 216
e 291 224
e 291 232
e 291 240
e 291 256
e 291 264
e 291 288
e 292 8
e 292 16
e 292 24
e 292 48
e 292 80
e 292 112
e 292 120
e 292 128
e 292 136
e 292 160
e 292 168
e 292 200
e 292 208
e 292 216
e 292 224
e 292 232
e 292 248
e 292 264
e 292 280
e 292 288
e 293 32
e 293 40
e 293 48
e 293 56
e 293 64
e 293 96
e 293 104
e 293 120
e 293 128
e 293 144
e 293 160
e 293 168
e 293 176
e 293 208
e 293 216
e 293 240
e 293 248
e 293 264
e 293 272
e 293 280
e 293 288
e 294 8
e 294 40
e 294 48
e 294 56
e 294 72
e 294 80
e 294 96
e 294 128
e 294 168
e 294 176
e 294 184
e 294 200
e 294 208
e 294 216
e 294 232
e 294 264
e 294 280
e 295 8
e 295 16
e 295 48
e 295 56
e 295 72
e 295 88
e 295 96
e 295 104
e 295 112
e 295 128
e 295 136
e 295 152
e 295 160
e 295 168
e 295 184
e 295 192
e 295 208
e 295 216
e 295 224
e 295 240
e 295 248
e 295 256
e 295 264
e 295 272
e 295 288
e 296 16
e 296 24
e 296 32
e 296 40
e 296 56
e 296 80
e 296 144
e 296 152
e 296 184
e 296 192
e 296 224
e 296 232
e 296 256
e 296 272
e 296 288
e 297 24
e 297 32
e 297 40
e 297 64
e 297 72
e 297 96
e 297 104
e 297 112
e 297 136
e 297 152
e 297 160
e 297 168
e 297 176
e 297 200
e 297 208
e 297 224
e 297 248
e 297 256
e 297 264
e 297 272
e 297 280
e 298 8
e 298 16
e 298 64
e 298 80
e 298 88
e 298 104
e 298 112
e 298 136
e 298 144
e 298 160
e 298 168
e 298 176
e 298 192
e 298 200
e 298 248
e 298 288
e 299 8
e 299 16
e 299 24
e 299 56
e 299 80
e 299 88
e 299 96
e 299 104
e 299 120
e 299 144
e 299 160
e 299 184
e 299 192
e 299 216
e 299 224
e 299 232
e 299 240
e 299 264
e 300 24
e 300 32
e 300 40
e 300 48
e 300 56
e 300 64
e 300 72
e 300 80
e 300 88
e 300 104
e 300 112
e 300 128
e 300 152
e 300 168
e 300 176
e 300 184
e 300 192
e 300 208
e 300 216
e 300 240
e 300 248
e 300 256
